c ren 1 -> 1
c ren 2 -> 2
c ren 3 -> 3
c ren 4 -> 4
c ren 5 -> 5
c ren 6 -> 6
c ren 7 -> 7
c ren 8 -> 8
c ren 9 -> 9
c ren 10 -> 10
c ren 11 -> 11
c ren 12 -> 12
c ren 13 -> 13
c ren 14 -> 14
c ren 15 -> 15
c ren 16 -> 16
c ren 17 -> 17
c ren 18 -> 18
c ren 19 -> 19
c ren 20 -> 20
c ren 21 -> 21
c ren 22 -> 22
c ren 23 -> 23
c ren 24 -> 24
c ren 25 -> 25
c ren 26 -> 26
c ren 27 -> 27
c ren 28 -> 28
c ren 29 -> 29
c ren 30 -> 30
c ren 31 -> 31
c ren 32 -> 32
c ren 33 -> 33
c ren 34 -> 34
c ren 35 -> 35
c ren 36 -> 36
c ren 37 -> 37
c ren 38 -> 38
c ren 39 -> 39
c ren 40 -> 40
c ren 41 -> 41
c ren 42 -> 42
c ren 43 -> 43
c ren 44 -> 44
c ren 45 -> 45
c ren 46 -> 46
c ren 47 -> 47
c ren 48 -> 48
c ren 49 -> 49
c ren 50 -> 50
c ren 51 -> 51
c ren 52 -> 52
c ren 53 -> 53
c ren 54 -> 54
c ren 67 -> 55
c ren 82 -> 56
c ren 85 -> 57
c ren 88 -> 58
c ren 91 -> 59
c ren 106 -> 60
c ren 121 -> 61
c ren 131 -> 62
c ren 142 -> 63
c ren 148 -> 64
c ren 159 -> 65
c ren 165 -> 66
c ren 170 -> 67
c ren 175 -> 68
c ren 179 -> 69
c ren 184 -> 70
c ren 188 -> 71
c ren 190 -> 72
c ren 192 -> 73
c ren 194 -> 74
c ren 195 -> 75
c ren 196 -> 76
c ren 198 -> 77
c ren 312 -> 78
c ren 313 -> 79
c ren 314 -> 80
c ren 315 -> 81
c ren 316 -> 82
c ren 317 -> 83
c ren 318 -> 84
c ren 319 -> 85
c ren 320 -> 86
c ren 321 -> 87
c ren 322 -> 88
c ren 323 -> 89
c ren 324 -> 90
c ren 325 -> 91
c ren 326 -> 92
c ren 327 -> 93
c ren 328 -> 94
c ren 329 -> 95
c ren 330 -> 96
c ren 331 -> 97
c ren 332 -> 98
p cnf 98 282
a 1 2 3 4 5 6 7 8 9 10 11 12 13 14 15 16 17 18 19 20 21 22 23 24 25 26 27 28 29 30 31 32 33 34 35 36 37 38 39 40 41 42 43 44 45 46 47 48 49 50 51 52 53 54 0
d 72 35 36 0
d 73 39 40 0
d 74 47 48 49 50 51 52 53 54 0
d 75 47 48 49 50 51 52 53 54 0
d 76 37 38 0
d 77 33 34 0
e 55 56 57 58 59 60 61 62 63 64 65 66 67 68 69 70 71 78 79 80 81 82 83 84 85 86 87 88 89 90 91 92 93 94 95 96 97 98 0
-9 -10 -11 -12 28 -55 -68 0
9 10 11 -27 56 0
-11 27 -55 0
-9 -10 -11 -12 -26 -28 -55 -56 0
-9 -11 -12 26 28 -55 -68 0
10 -25 -28 -55 68 0
9 12 -26 -28 -55 56 0
10 25 26 55 -56 0
9 10 12 -55 68 0
10 12 -25 -28 -55 56 0
9 -25 56 0
-9 10 -11 -12 26 -28 -55 -56 0
10 -25 55 56 -68 0
9 10 11 -27 68 0
11 55 0
-27 55 0
10 -11 -12 25 26 -28 -56 0
-10 25 26 -68 0
9 10 -26 56 0
-9 25 -68 0
-10 -11 12 25 -26 28 -56 0
-9 10 -11 12 26 28 -56 0
10 55 -56 68 0
10 11 -25 -27 56 0
-9 -10 26 -68 0
10 -11 12 25 26 28 -55 -56 0
-9 -10 -11 12 -26 28 -56 0
10 -25 -26 56 0
10 12 -56 68 0
10 12 -25 -55 68 0
-10 -11 -12 25 28 -55 -68 0
10 -25 -28 -56 68 0
9 10 -28 -55 68 0
-9 10 26 55 -56 0
-9 25 -56 0
9 -25 68 0
-12 25 26 27 28 -55 -68 0
9 10 -28 -56 68 0
10 11 -25 -27 68 0
-56 -71 0
-7 -57 0
23 -57 0
7 -23 57 0
8 -21 -22 -23 -60 0
-57 60 -69 -70 0
-8 -13 29 56 57 58 59 63 70 0
-6 -58 0
22 -58 0
6 -22 58 0
6 8 -21 -23 -60 0
-58 -71 0
-13 15 -16 -29 31 -32 64 -65 67 0
-5 -59 0
21 -59 0
5 -21 59 0
5 6 7 8 -60 0
-59 -69 -70 0
-7 23 -71 0
6 7 8 -21 -60 0
-8 24 60 -69 -70 0
-7 23 60 -69 -70 0
-6 22 -71 0
-59 -60 0
-5 21 60 0
-59 -71 0
-58 60 -69 -70 0
-57 -71 0
-7 23 58 59 60 0
-6 22 59 60 0
-8 29 56 57 58 59 63 65 70 0
8 -24 60 -69 -70 0
6 -8 24 57 58 59 60 0
5 -58 -60 0
-8 -22 24 57 58 59 60 0
-8 57 58 59 63 68 70 0
-8 56 57 58 59 63 -66 70 0
13 60 -64 -68 -69 -70 0
12 -25 -26 -55 68 0
13 15 -16 29 31 32 64 -65 66 0
7 8 -21 -22 -60 0
-8 -13 56 57 58 59 63 65 70 0
-63 -71 0
65 -67 0
2 4 -19 -62 69 0
-19 -51 -97 0
-2 3 4 -18 19 20 61 -63 0
2 3 -19 -62 69 0
2 3 4 -20 -62 63 0
-2 -3 -4 -18 -19 -20 61 -63 0
-18 -52 -98 0
2 -3 -4 18 -19 -20 61 -63 0
-3 -18 19 -63 69 0
-1 -61 0
17 -61 0
-1 17 -62 0
-2 3 -4 -18 19 -20 61 -63 0
-9 -10 -26 55 -56 0
-11 -12 25 26 28 -55 -68 0
-9 10 12 26 27 28 -55 -56 0
2 3 -20 -62 69 0
2 -3 4 18 20 61 -63 0
-2 18 61 -69 0
1 62 0
-17 62 0
-2 18 52 -98 0
2 3 4 -62 69 0
-61 -62 69 0
3 -51 -97 0
-3 19 51 -97 0
-2 -3 4 -18 -19 20 61 -63 0
2 3 -19 -62 63 0
-49 62 -95 0
2 4 -19 -20 -62 63 0
3 -18 -19 -62 69 0
3 -18 -20 -62 69 0
3 4 -18 -20 -62 63 0
-20 -50 -96 0
-49 -61 -95 0
4 -50 -96 0
3 4 -18 -62 69 0
2 -18 -62 69 0
62 -69 0
-18 -19 -20 -62 69 0
10 12 25 26 27 28 -55 -56 0
-3 18 19 61 -69 0
2 -3 19 -63 69 0
-63 -69 -70 0
12 -25 -26 -28 -55 56 0
24 29 56 57 58 59 63 65 70 0
15 -31 -66 0
-13 -15 -16 -29 -31 32 64 -65 66 0
-13 -15 16 -29 -31 32 64 -65 67 0
-14 -64 0
30 -64 0
-14 30 -65 0
-64 -66 0
13 -15 -16 29 -31 32 64 -65 66 0
13 -29 -66 0
4 -18 -19 -62 69 0
-29 -31 60 -65 66 -68 -69 -70 0
13 -15 -16 29 -31 -32 64 -65 67 0
13 15 60 -65 66 -68 -69 -70 0
14 65 0
-30 65 0
-8 -13 -15 31 56 57 58 59 63 64 70 0
13 -31 60 -65 66 -68 -69 -70 0
-29 60 -64 -68 -69 -70 0
-6 22 60 -69 -70 0
-60 63 70 0
-32 -66 0
13 15 -16 29 31 -32 64 -65 67 0
-64 -67 0
-13 24 56 57 58 59 63 65 70 0
13 -29 60 -68 -69 -70 0
15 -29 60 -65 66 -68 -69 -70 0
10 -25 -26 68 0
9 10 -26 68 0
5 7 8 -22 -60 0
62 -63 0
-13 -15 -16 -29 -31 -32 64 -65 67 0
-8 56 57 58 59 60 63 66 -67 -68 -69 71 0
5 6 8 -23 -60 0
-56 60 -68 -69 -70 0
68 -71 0
65 -66 0
69 70 0
-60 -71 0
-66 -71 0
6 -21 -23 -24 -60 0
69 -71 0
13 15 16 29 31 32 64 -65 67 0
-10 -12 25 27 28 -55 -68 0
-10 -11 -12 25 -26 -28 -56 0
9 10 55 56 -68 0
9 11 -26 -27 56 0
9 10 12 -28 -55 56 0
-25 -26 55 56 -68 0
24 56 57 58 59 60 63 66 -67 -68 -69 71 0
4 -20 63 -69 0
-13 -15 24 31 56 57 58 59 63 64 70 0
-13 24 29 56 57 58 59 63 70 0
24 56 57 58 59 63 -66 70 0
70 73 74 -78 0
-21 -58 -60 0
-2 -3 19 61 -69 0
12 -26 -56 68 0
5 8 -22 -23 -60 0
5 6 -57 -60 0
6 -21 -57 -60 0
-21 -22 -57 -60 0
5 6 7 -24 -60 0
5 -22 -57 -60 0
24 57 58 59 63 68 70 0
5 7 -22 -24 -60 0
-10 25 -26 55 -56 0
-8 -15 29 31 56 57 58 59 63 64 70 0
5 6 -23 -24 -60 0
-70 -74 75 -78 0
4 -18 -19 -20 -62 63 0
9 11 -26 -27 68 0
5 -22 -23 -24 -60 0
-25 -26 -28 -55 68 0
-70 -73 75 -78 0
-13 15 16 -29 31 32 64 -65 67 0
14 -30 64 0
-13 15 -16 -29 31 32 64 -65 66 0
13 -15 16 29 -31 32 64 -65 67 0
2 -18 -62 63 0
16 -66 0
7 -21 -22 -24 -60 0
9 12 -26 -55 68 0
-9 -10 -12 27 28 -55 -68 0
9 -26 -28 -55 68 0
9 -26 55 56 -68 0
-26 -28 -56 68 0
-15 24 29 31 56 57 58 59 63 64 70 0
-3 19 63 -69 0
1 -17 61 0
-21 -22 -23 -24 -60 0
-70 -73 -74 -78 0
-71 -78 0
70 73 -75 -78 0
70 74 -75 -78 0
11 -25 -26 -27 56 0
6 7 -21 -24 -60 0
11 -25 -26 -27 68 0
-2 -33 -79 0
2 33 -79 0
-18 -34 -80 0
18 34 -80 0
-3 -35 -81 0
-26 55 -56 68 0
3 35 -81 0
-19 -36 -82 0
19 36 -82 0
-4 -37 -83 0
4 37 -83 0
-20 -38 -84 0
-9 -12 26 27 28 -55 -68 0
20 38 -84 0
-5 -39 -85 0
5 39 -85 0
-21 -40 -86 0
21 40 -86 0
-6 -41 -87 0
-10 -12 25 -26 27 -28 -56 0
6 41 -87 0
-22 -42 -88 0
-9 -10 -12 -26 27 -28 -56 0
22 42 -88 0
-7 -43 -89 0
-9 -10 12 -26 27 28 -56 0
7 43 -89 0
-23 -44 -90 0
23 44 -90 0
-13 -45 -91 0
-10 12 25 -26 27 28 -56 0
13 45 -91 0
-29 -46 -92 0
29 46 -92 0
-47 -72 -93 0
47 72 -93 0
-48 -77 -94 0
10 -12 25 26 27 -28 -56 0
48 77 -94 0
-61 -62 63 0
49 61 -62 -95 0
-3 -4 18 20 61 -69 0
-2 -4 19 20 61 -69 0
3 -18 -19 -62 63 0
-4 20 50 -96 0
2 3 -4 18 19 -20 61 -63 0
2 -19 -20 -62 69 0
-4 18 19 20 61 -69 0
-2 -3 -4 20 61 -69 0
2 4 18 19 20 61 -63 0
-9 10 -12 26 27 -28 -56 0
2 -52 -98 0
-53 54 -62 76 78 79 80 81 82 83 84 85 86 87 88 89 90 91 92 93 94 95 96 97 98 0
53 -54 62 -76 78 79 80 81 82 83 84 85 86 87 88 89 90 91 92 93 94 95 96 97 98 0
-53 -54 -62 -76 78 79 80 81 82 83 84 85 86 87 88 89 90 91 92 93 94 95 96 97 98 0
53 54 62 76 78 79 80 81 82 83 84 85 86 87 88 89 90 91 92 93 94 95 96 97 98 0
